100
150
103
103
103
102
102
101
101
100
100
100
99
98
98
98
97
97
96
96
95
95
95
93
91
91
89
89
89
88
88
88
87
87
84
83
83
82
81
79
79
78
77
77
76
75
74
72
72
72
70
70
70
69
68
67
67
65
65
64
64
63
61
60
58
57
56
56
56
56
54
54
54
52
51
50
50
49
46
44
44
42
40
40
40
39
39
39
38
37
37
35
35
34
33
33
32
32
32
32
31
30
